% seed = 5680776

mint = 53;
% maxt = 147;

nActs = 22;
dur = [0,5,6,10,9,9,10,8,5,9,7,10,2,5,8,10,8,3,9,10,4,0];

nSkills = 4;
sreq = [| 0,0,0,0,
	| 3,0,0,3,
	| 0,0,3,2,
	| 1,0,2,0,
	| 2,0,0,1,
	| 2,2,0,0,
	| 0,2,1,0,
	| 0,3,0,1,
	| 0,1,0,3,
	| 0,2,3,0,
	| 0,1,1,0,
	| 3,0,0,2,
	| 0,2,3,0,
	| 3,2,0,0,
	| 0,2,1,0,
	| 0,2,0,2,
	| 2,2,0,0,
	| 0,0,3,2,
	| 1,0,1,0,
	| 0,2,0,2,
	| 3,0,0,1,
	| 0,0,0,0, |];

nResources = 10;
mastery = [| true,false,true,false,
	| false,true,false,true,
	| true,false,false,true,
	| false,true,false,true,
	| false,false,false,true,
	| true,false,false,false,
	| false,false,false,true,
	| false,true,true,true,
	| true,false,false,true,
	| false,false,true,true, |];

nPrecs = 43;
pred = [1,1,1,2,2,2,3,3,3,4,4,5,5,5,6,6,6,7,8,8,8,9,10,10,10,11,12,12,13,13,14,14,15,15,15,16,16,17,18,18,19,20,21];
succ = [2,3,4,18,7,10,10,15,8,5,15,9,12,6,17,14,7,20,9,18,12,14,11,12,14,13,19,21,17,16,19,16,17,18,16,20,21,19,20,21,22,22,22];

nUnrels = 83;
unpred = [2,2,2,2,2,2,2,3,3,3,3,4,4,4,4,5,5,5,5,5,5,6,6,6,6,6,6,6,6,7,7,7,7,7,7,7,7,7,7,7,7,7,8,8,8,8,8,9,9,9,9,9,9,9,10,10,11,11,11,11,12,12,12,12,12,12,12,13,13,13,14,14,14,16,16,16,17,17,17,18,19,19,20];
unsucc = [3,4,5,6,8,9,15,4,5,6,7,8,10,11,13,8,10,11,13,15,18,8,9,10,11,12,13,15,18,8,9,10,11,12,13,14,15,16,17,18,19,21,10,11,13,15,17,10,11,12,13,15,17,18,15,18,12,14,15,18,13,14,15,16,17,18,20,14,15,18,15,17,18,17,18,19,18,20,21,19,20,21,21];

USEFUL_RES = [{},
	{1,2,3,4,5,6,7,8,9,10},
	{1,2,3,4,5,7,8,9,10},
	{1,3,6,8,9,10},
	{1,2,3,4,5,6,7,8,9,10},
	{1,2,3,4,6,8,9},
	{1,2,4,8,10},
	{2,3,4,5,7,8,9,10},
	{2,3,4,5,7,8,9,10},
	{1,2,4,8,10},
	{1,2,4,8,10},
	{1,2,3,4,5,6,7,8,9,10},
	{1,2,4,8,10},
	{1,2,3,4,6,8,9},
	{1,2,4,8,10},
	{2,3,4,5,7,8,9,10},
	{1,2,3,4,6,8,9},
	{1,2,3,4,5,7,8,9,10},
	{1,3,6,8,9,10},
	{2,3,4,5,7,8,9,10},
	{1,2,3,4,5,6,7,8,9,10},
	{}];

POTENTIAL_ACT = [{2,3,4,5,6,7,10,11,12,13,14,15,17,18,19,21},
	{2,3,5,6,7,8,9,10,11,12,13,14,15,16,17,18,20,21},
	{2,3,4,5,6,8,9,12,14,16,17,18,19,20,21},
	{2,3,5,6,7,8,9,10,11,12,13,14,15,16,17,18,20,21},
	{2,3,5,8,9,12,16,18,20,21},
	{2,4,5,6,12,14,17,19,21},
	{2,3,5,8,9,12,16,18,20,21},
	{2,3,4,5,6,7,8,9,10,11,12,13,14,15,16,17,18,19,20,21},
	{2,3,4,5,6,8,9,12,14,16,17,18,19,20,21},
	{2,3,4,5,7,8,9,10,11,12,13,15,16,18,19,20,21}];
